70
1 0 1
2 0 1
2 1 1
3 0 2
3 1 1
3 2 1
4 0 1
4 1 1
4 2 2
4 3 1
5 0 1
5 1 2
5 2 2
5 3 1
5 4 2
6 0 2
6 1 2
6 2 2
6 3 1
6 4 1
6 5 1
7 0 2
7 1 1
7 2 2
7 3 1
7 4 1
7 5 2
7 6 2
8 0 1
8 1 2
8 2 2
8 3 2
8 4 2
8 5 2
8 6 1
8 7 2
9 0 1
9 1 2
9 2 1
9 3 1
9 4 2
9 5 2
9 6 1
9 7 1
9 8 2
10 0 2
10 1 1
10 2 2
10 3 2
10 4 1
10 5 2
10 6 2
10 7 1
10 8 2
10 9 1
11 0 1
11 1 1
11 2 2
11 3 2
11 4 1
11 5 2
11 6 1
11 7 1
11 8 1
11 9 1
11 10 2
12 0 2
12 1 1
12 2 1
12 3 2
12 4 2
12 5 1
12 6 1
12 7 1
12 8 1
12 9 2
12 10 1
12 11 1
13 0 1
13 1 1
13 2 1
13 3 1
13 4 1
13 5 1
13 6 2
13 7 1
13 8 2
13 9 1
13 10 2
13 11 1
13 12 2
14 0 2
14 1 2
14 2 1
14 3 1
14 4 1
14 5 2
14 6 2
14 7 2
14 8 2
14 9 1
14 10 2
14 11 2
14 12 2
14 13 2
15 0 2
15 1 1
15 2 1
15 3 1
15 4 1
15 5 1
15 6 1
15 7 2
15 8 1
15 9 1
15 10 2
15 11 2
15 12 2
15 13 1
15 14 1
16 0 1
16 1 2
16 2 1
16 3 2
16 4 2
16 5 1
16 6 2
16 7 2
16 8 2
16 9 1
16 10 1
16 11 2
16 12 2
16 13 1
16 14 1
16 15 1
17 0 2
17 1 1
17 2 1
17 3 2
17 4 1
17 5 2
17 6 1
17 7 1
17 8 1
17 9 2
17 10 1
17 11 1
17 12 1
17 13 1
17 14 2
17 15 1
17 16 2
18 0 2
18 1 2
18 2 2
18 3 2
18 4 1
18 5 2
18 6 1
18 7 2
18 8 1
18 9 1
18 10 2
18 11 2
18 12 1
18 13 2
18 14 1
18 15 1
18 16 1
18 17 1
19 0 2
19 1 2
19 2 2
19 3 2
19 4 2
19 5 1
19 6 1
19 7 1
19 8 1
19 9 2
19 10 1
19 11 2
19 12 1
19 13 1
19 14 2
19 15 1
19 16 1
19 17 2
19 18 2
20 0 1
20 1 2
20 2 2
20 3 1
20 4 1
20 5 1
20 6 1
20 7 2
20 8 2
20 9 1
20 10 1
20 11 1
20 12 2
20 13 2
20 14 1
20 15 1
20 16 1
20 17 2
20 18 1
20 19 1
21 0 2
21 1 1
21 2 1
21 3 2
21 4 2
21 5 1
21 6 1
21 7 1
21 8 2
21 9 2
21 10 2
21 11 1
21 12 2
21 13 1
21 14 1
21 15 2
21 16 2
21 17 2
21 18 1
21 19 1
21 20 1
22 0 2
22 1 1
22 2 2
22 3 2
22 4 1
22 5 2
22 6 1
22 7 1
22 8 2
22 9 2
22 10 1
22 11 2
22 12 2
22 13 1
22 14 2
22 15 2
22 16 1
22 17 2
22 18 2
22 19 2
22 20 1
22 21 2
23 0 1
23 1 1
23 2 1
23 3 1
23 4 2
23 5 2
23 6 2
23 7 1
23 8 1
23 9 2
23 10 1
23 11 1
23 12 2
23 13 1
23 14 2
23 15 2
23 16 1
23 17 1
23 18 1
23 19 1
23 20 2
23 21 2
23 22 1
24 0 2
24 1 1
24 2 1
24 3 1
24 4 1
24 5 2
24 6 1
24 7 1
24 8 2
24 9 1
24 10 2
24 11 1
24 12 1
24 13 1
24 14 2
24 15 2
24 16 1
24 17 2
24 18 2
24 19 2
24 20 1
24 21 1
24 22 1
24 23 2
25 0 2
25 1 2
25 2 1
25 3 2
25 4 1
25 5 1
25 6 1
25 7 2
25 8 2
25 9 1
25 10 1
25 11 1
25 12 2
25 13 2
25 14 1
25 15 1
25 16 1
25 17 2
25 18 2
25 19 1
25 20 1
25 21 1
25 22 1
25 23 1
25 24 2
26 0 2
26 1 1
26 2 2
26 3 2
26 4 1
26 5 2
26 6 1
26 7 2
26 8 1
26 9 1
26 10 2
26 11 2
26 12 2
26 13 2
26 14 2
26 15 2
26 16 1
26 17 1
26 18 1
26 19 2
26 20 1
26 21 2
26 22 2
26 23 2
26 24 1
26 25 2
27 0 2
27 1 2
27 2 1
27 3 2
27 4 2
27 5 2
27 6 2
27 7 2
27 8 2
27 9 2
27 10 1
27 11 1
27 12 1
27 13 2
27 14 1
27 15 1
27 16 2
27 17 1
27 18 1
27 19 1
27 20 1
27 21 1
27 22 1
27 23 1
27 24 1
27 25 2
27 26 2
28 0 2
28 1 1
28 2 2
28 3 2
28 4 2
28 5 1
28 6 1
28 7 1
28 8 1
28 9 1
28 10 1
28 11 1
28 12 2
28 13 2
28 14 2
28 15 1
28 16 2
28 17 2
28 18 2
28 19 1
28 20 1
28 21 2
28 22 2
28 23 2
28 24 2
28 25 2
28 26 1
28 27 1
29 0 1
29 1 2
29 2 1
29 3 1
29 4 2
29 5 1
29 6 2
29 7 1
29 8 1
29 9 1
29 10 1
29 11 2
29 12 1
29 13 2
29 14 2
29 15 1
29 16 2
29 17 2
29 18 2
29 19 1
29 20 2
29 21 1
29 22 2
29 23 2
29 24 2
29 25 1
29 26 2
29 27 1
29 28 2
30 0 2
30 1 1
30 2 1
30 3 1
30 4 2
30 5 1
30 6 2
30 7 2
30 8 1
30 9 1
30 10 2
30 11 2
30 12 1
30 13 1
30 14 2
30 15 1
30 16 1
30 17 2
30 18 2
30 19 1
30 20 1
30 21 2
30 22 2
30 23 2
30 24 1
30 25 2
30 26 1
30 27 1
30 28 2
30 29 2
31 0 2
31 1 2
31 2 2
31 3 2
31 4 2
31 5 1
31 6 1
31 7 1
31 8 2
31 9 2
31 10 1
31 11 2
31 12 2
31 13 2
31 14 1
31 15 2
31 16 1
31 17 2
31 18 2
31 19 1
31 20 1
31 21 1
31 22 2
31 23 1
31 24 2
31 25 2
31 26 1
31 27 2
31 28 2
31 29 1
31 30 2
32 0 1
32 1 1
32 2 1
32 3 1
32 4 2
32 5 2
32 6 2
32 7 1
32 8 2
32 9 2
32 10 1
32 11 2
32 12 2
32 13 1
32 14 2
32 15 2
32 16 1
32 17 1
32 18 2
32 19 2
32 20 1
32 21 2
32 22 1
32 23 2
32 24 2
32 25 1
32 26 2
32 27 1
32 28 2
32 29 1
32 30 1
32 31 2
33 0 1
33 1 2
33 2 2
33 3 1
33 4 1
33 5 1
33 6 2
33 7 2
33 8 2
33 9 2
33 10 2
33 11 2
33 12 1
33 13 2
33 14 2
33 15 1
33 16 1
33 17 2
33 18 1
33 19 1
33 20 1
33 21 2
33 22 2
33 23 1
33 24 1
33 25 2
33 26 2
33 27 1
33 28 1
33 29 1
33 30 1
33 31 1
33 32 2
34 0 2
34 1 2
34 2 1
34 3 2
34 4 1
34 5 2
34 6 1
34 7 1
34 8 1
34 9 1
34 10 1
34 11 2
34 12 2
34 13 1
34 14 1
34 15 1
34 16 1
34 17 1
34 18 2
34 19 2
34 20 1
34 21 2
34 22 2
34 23 1
34 24 2
34 25 1
34 26 2
34 27 2
34 28 2
34 29 1
34 30 2
34 31 1
34 32 1
34 33 1
35 0 1
35 1 1
35 2 1
35 3 2
35 4 2
35 5 2
35 6 1
35 7 2
35 8 1
35 9 2
35 10 1
35 11 1
35 12 1
35 13 1
35 14 1
35 15 2
35 16 1
35 17 2
35 18 1
35 19 2
35 20 1
35 21 1
35 22 2
35 23 1
35 24 1
35 25 2
35 26 1
35 27 1
35 28 2
35 29 1
35 30 2
35 31 2
35 32 1
35 33 2
35 34 2
36 0 2
36 1 2
36 2 2
36 3 2
36 4 2
36 5 2
36 6 2
36 7 2
36 8 1
36 9 1
36 10 1
36 11 2
36 12 2
36 13 1
36 14 2
36 15 2
36 16 1
36 17 1
36 18 1
36 19 2
36 20 1
36 21 2
36 22 2
36 23 2
36 24 2
36 25 2
36 26 2
36 27 2
36 28 1
36 29 1
36 30 1
36 31 2
36 32 2
36 33 2
36 34 2
36 35 1
37 0 1
37 1 2
37 2 2
37 3 1
37 4 1
37 5 1
37 6 2
37 7 1
37 8 1
37 9 1
37 10 2
37 11 2
37 12 1
37 13 1
37 14 1
37 15 2
37 16 2
37 17 2
37 18 1
37 19 2
37 20 2
37 21 1
37 22 1
37 23 2
37 24 2
37 25 1
37 26 1
37 27 1
37 28 1
37 29 1
37 30 2
37 31 1
37 32 1
37 33 2
37 34 2
37 35 1
37 36 1
38 0 2
38 1 1
38 2 1
38 3 2
38 4 2
38 5 1
38 6 1
38 7 1
38 8 1
38 9 2
38 10 1
38 11 2
38 12 2
38 13 2
38 14 1
38 15 1
38 16 1
38 17 1
38 18 1
38 19 2
38 20 1
38 21 2
38 22 1
38 23 1
38 24 2
38 25 1
38 26 1
38 27 1
38 28 1
38 29 2
38 30 2
38 31 1
38 32 2
38 33 2
38 34 2
38 35 1
38 36 2
38 37 1
39 0 2
39 1 2
39 2 2
39 3 1
39 4 1
39 5 2
39 6 2
39 7 2
39 8 2
39 9 2
39 10 1
39 11 2
39 12 1
39 13 2
39 14 2
39 15 1
39 16 1
39 17 1
39 18 2
39 19 1
39 20 2
39 21 2
39 22 1
39 23 2
39 24 1
39 25 2
39 26 2
39 27 1
39 28 2
39 29 2
39 30 2
39 31 1
39 32 2
39 33 1
39 34 2
39 35 1
39 36 2
39 37 1
39 38 2
40 0 1
40 1 2
40 2 2
40 3 1
40 4 2
40 5 2
40 6 1
40 7 2
40 8 2
40 9 1
40 10 2
40 11 2
40 12 1
40 13 2
40 14 1
40 15 1
40 16 2
40 17 2
40 18 2
40 19 2
40 20 2
40 21 1
40 22 2
40 23 2
40 24 2
40 25 1
40 26 2
40 27 2
40 28 1
40 29 1
40 30 2
40 31 1
40 32 2
40 33 1
40 34 2
40 35 2
40 36 1
40 37 2
40 38 2
40 39 1
41 0 2
41 1 1
41 2 1
41 3 2
41 4 1
41 5 2
41 6 2
41 7 1
41 8 1
41 9 1
41 10 1
41 11 1
41 12 2
41 13 2
41 14 2
41 15 1
41 16 1
41 17 2
41 18 1
41 19 1
41 20 2
41 21 1
41 22 2
41 23 1
41 24 2
41 25 2
41 26 2
41 27 2
41 28 1
41 29 2
41 30 1
41 31 1
41 32 1
41 33 2
41 34 2
41 35 1
41 36 1
41 37 1
41 38 1
41 39 2
41 40 1
42 0 2
42 1 2
42 2 1
42 3 2
42 4 2
42 5 1
42 6 1
42 7 1
42 8 1
42 9 1
42 10 1
42 11 2
42 12 2
42 13 1
42 14 1
42 15 2
42 16 2
42 17 1
42 18 1
42 19 1
42 20 1
42 21 1
42 22 1
42 23 1
42 24 2
42 25 2
42 26 2
42 27 2
42 28 1
42 29 2
42 30 2
42 31 1
42 32 2
42 33 1
42 34 2
42 35 2
42 36 2
42 37 1
42 38 1
42 39 1
42 40 1
42 41 2
43 0 1
43 1 2
43 2 1
43 3 2
43 4 2
43 5 1
43 6 1
43 7 1
43 8 1
43 9 1
43 10 2
43 11 1
43 12 2
43 13 2
43 14 1
43 15 1
43 16 1
43 17 2
43 18 2
43 19 1
43 20 2
43 21 1
43 22 2
43 23 2
43 24 2
43 25 1
43 26 1
43 27 1
43 28 2
43 29 2
43 30 1
43 31 1
43 32 1
43 33 1
43 34 1
43 35 2
43 36 1
43 37 2
43 38 2
43 39 1
43 40 2
43 41 2
43 42 2
44 0 2
44 1 2
44 2 1
44 3 2
44 4 1
44 5 1
44 6 2
44 7 2
44 8 1
44 9 2
44 10 2
44 11 1
44 12 2
44 13 1
44 14 1
44 15 2
44 16 1
44 17 1
44 18 1
44 19 2
44 20 1
44 21 1
44 22 1
44 23 2
44 24 1
44 25 2
44 26 2
44 27 2
44 28 2
44 29 2
44 30 2
44 31 1
44 32 1
44 33 1
44 34 1
44 35 1
44 36 1
44 37 1
44 38 1
44 39 2
44 40 1
44 41 1
44 42 1
44 43 1
45 0 2
45 1 2
45 2 1
45 3 1
45 4 1
45 5 2
45 6 2
45 7 1
45 8 1
45 9 1
45 10 1
45 11 2
45 12 2
45 13 1
45 14 2
45 15 1
45 16 2
45 17 2
45 18 2
45 19 1
45 20 2
45 21 2
45 22 2
45 23 1
45 24 2
45 25 1
45 26 1
45 27 2
45 28 2
45 29 2
45 30 2
45 31 2
45 32 1
45 33 1
45 34 2
45 35 2
45 36 1
45 37 1
45 38 2
45 39 1
45 40 2
45 41 2
45 42 1
45 43 1
45 44 2
46 0 1
46 1 1
46 2 2
46 3 1
46 4 2
46 5 2
46 6 2
46 7 2
46 8 2
46 9 1
46 10 2
46 11 1
46 12 1
46 13 1
46 14 2
46 15 1
46 16 2
46 17 1
46 18 2
46 19 2
46 20 1
46 21 1
46 22 1
46 23 1
46 24 1
46 25 2
46 26 1
46 27 2
46 28 1
46 29 1
46 30 2
46 31 1
46 32 2
46 33 1
46 34 2
46 35 1
46 36 2
46 37 1
46 38 1
46 39 1
46 40 1
46 41 1
46 42 1
46 43 2
46 44 1
46 45 1
47 0 1
47 1 2
47 2 1
47 3 1
47 4 2
47 5 1
47 6 1
47 7 1
47 8 1
47 9 2
47 10 1
47 11 1
47 12 1
47 13 2
47 14 2
47 15 1
47 16 1
47 17 2
47 18 2
47 19 2
47 20 1
47 21 2
47 22 2
47 23 2
47 24 1
47 25 1
47 26 2
47 27 2
47 28 2
47 29 1
47 30 2
47 31 1
47 32 2
47 33 2
47 34 2
47 35 2
47 36 1
47 37 1
47 38 1
47 39 2
47 40 1
47 41 2
47 42 1
47 43 1
47 44 1
47 45 2
47 46 1
48 0 1
48 1 1
48 2 2
48 3 1
48 4 2
48 5 2
48 6 2
48 7 2
48 8 2
48 9 2
48 10 1
48 11 2
48 12 2
48 13 1
48 14 1
48 15 2
48 16 2
48 17 1
48 18 2
48 19 2
48 20 2
48 21 2
48 22 2
48 23 2
48 24 2
48 25 1
48 26 2
48 27 2
48 28 2
48 29 2
48 30 1
48 31 1
48 32 1
48 33 2
48 34 2
48 35 2
48 36 1
48 37 2
48 38 2
48 39 2
48 40 1
48 41 2
48 42 2
48 43 1
48 44 2
48 45 2
48 46 2
48 47 1
49 0 2
49 1 2
49 2 1
49 3 2
49 4 2
49 5 1
49 6 2
49 7 1
49 8 1
49 9 1
49 10 1
49 11 2
49 12 2
49 13 2
49 14 1
49 15 2
49 16 1
49 17 1
49 18 1
49 19 2
49 20 2
49 21 2
49 22 1
49 23 2
49 24 1
49 25 2
49 26 2
49 27 2
49 28 2
49 29 1
49 30 2
49 31 2
49 32 1
49 33 2
49 34 1
49 35 1
49 36 2
49 37 1
49 38 2
49 39 2
49 40 1
49 41 1
49 42 2
49 43 2
49 44 1
49 45 1
49 46 2
49 47 1
49 48 2
50 0 2
50 1 1
50 2 2
50 3 1
50 4 2
50 5 2
50 6 2
50 7 1
50 8 2
50 9 2
50 10 1
50 11 1
50 12 2
50 13 2
50 14 2
50 15 2
50 16 1
50 17 2
50 18 1
50 19 1
50 20 2
50 21 1
50 22 1
50 23 2
50 24 1
50 25 1
50 26 1
50 27 1
50 28 1
50 29 1
50 30 1
50 31 2
50 32 1
50 33 2
50 34 1
50 35 2
50 36 2
50 37 2
50 38 2
50 39 1
50 40 1
50 41 1
50 42 2
50 43 1
50 44 1
50 45 2
50 46 1
50 47 1
50 48 1
50 49 1
51 0 2
51 1 1
51 2 2
51 3 1
51 4 1
51 5 1
51 6 2
51 7 2
51 8 1
51 9 1
51 10 1
51 11 1
51 12 1
51 13 2
51 14 1
51 15 1
51 16 2
51 17 2
51 18 2
51 19 2
51 20 1
51 21 1
51 22 1
51 23 2
51 24 1
51 25 1
51 26 1
51 27 2
51 28 1
51 29 2
51 30 1
51 31 2
51 32 1
51 33 1
51 34 2
51 35 1
51 36 1
51 37 1
51 38 2
51 39 2
51 40 2
51 41 1
51 42 2
51 43 1
51 44 1
51 45 2
51 46 2
51 47 2
51 48 2
51 49 2
51 50 2
52 0 1
52 1 1
52 2 2
52 3 1
52 4 2
52 5 1
52 6 2
52 7 1
52 8 2
52 9 2
52 10 1
52 11 2
52 12 2
52 13 2
52 14 2
52 15 1
52 16 2
52 17 1
52 18 2
52 19 1
52 20 1
52 21 2
52 22 2
52 23 2
52 24 1
52 25 2
52 26 2
52 27 2
52 28 2
52 29 2
52 30 2
52 31 1
52 32 2
52 33 1
52 34 2
52 35 2
52 36 1
52 37 1
52 38 2
52 39 2
52 40 2
52 41 1
52 42 1
52 43 2
52 44 1
52 45 1
52 46 2
52 47 2
52 48 2
52 49 2
52 50 1
52 51 1
53 0 1
53 1 2
53 2 2
53 3 2
53 4 2
53 5 1
53 6 1
53 7 1
53 8 2
53 9 2
53 10 1
53 11 2
53 12 2
53 13 2
53 14 1
53 15 1
53 16 1
53 17 2
53 18 1
53 19 2
53 20 1
53 21 1
53 22 1
53 23 1
53 24 1
53 25 1
53 26 1
53 27 2
53 28 1
53 29 1
53 30 2
53 31 1
53 32 1
53 33 1
53 34 2
53 35 2
53 36 1
53 37 2
53 38 1
53 39 2
53 40 1
53 41 1
53 42 1
53 43 1
53 44 1
53 45 2
53 46 2
53 47 2
53 48 2
53 49 1
53 50 2
53 51 2
53 52 1
54 0 2
54 1 1
54 2 2
54 3 2
54 4 2
54 5 1
54 6 1
54 7 2
54 8 1
54 9 2
54 10 2
54 11 2
54 12 2
54 13 2
54 14 2
54 15 1
54 16 2
54 17 2
54 18 2
54 19 2
54 20 2
54 21 2
54 22 2
54 23 2
54 24 2
54 25 1
54 26 1
54 27 2
54 28 2
54 29 2
54 30 2
54 31 2
54 32 1
54 33 1
54 34 2
54 35 2
54 36 2
54 37 2
54 38 2
54 39 1
54 40 2
54 41 1
54 42 1
54 43 2
54 44 1
54 45 2
54 46 2
54 47 1
54 48 1
54 49 1
54 50 1
54 51 2
54 52 2
54 53 1
55 0 1
55 1 2
55 2 2
55 3 2
55 4 1
55 5 1
55 6 2
55 7 1
55 8 2
55 9 1
55 10 1
55 11 2
55 12 1
55 13 1
55 14 1
55 15 2
55 16 2
55 17 2
55 18 2
55 19 2
55 20 2
55 21 1
55 22 1
55 23 2
55 24 2
55 25 1
55 26 2
55 27 2
55 28 1
55 29 1
55 30 2
55 31 2
55 32 1
55 33 1
55 34 1
55 35 1
55 36 1
55 37 1
55 38 2
55 39 2
55 40 2
55 41 2
55 42 1
55 43 1
55 44 1
55 45 2
55 46 2
55 47 2
55 48 1
55 49 2
55 50 2
55 51 1
55 52 1
55 53 2
55 54 1
56 0 2
56 1 1
56 2 2
56 3 1
56 4 2
56 5 1
56 6 1
56 7 1
56 8 1
56 9 1
56 10 2
56 11 1
56 12 1
56 13 2
56 14 2
56 15 1
56 16 1
56 17 2
56 18 1
56 19 2
56 20 2
56 21 1
56 22 1
56 23 1
56 24 1
56 25 1
56 26 2
56 27 2
56 28 1
56 29 2
56 30 1
56 31 2
56 32 1
56 33 1
56 34 2
56 35 2
56 36 1
56 37 1
56 38 1
56 39 2
56 40 1
56 41 2
56 42 1
56 43 2
56 44 2
56 45 2
56 46 1
56 47 1
56 48 2
56 49 2
56 50 2
56 51 2
56 52 1
56 53 1
56 54 1
56 55 1
57 0 2
57 1 2
57 2 1
57 3 2
57 4 1
57 5 2
57 6 2
57 7 2
57 8 2
57 9 2
57 10 1
57 11 2
57 12 2
57 13 2
57 14 1
57 15 2
57 16 1
57 17 1
57 18 2
57 19 2
57 20 2
57 21 1
57 22 1
57 23 1
57 24 1
57 25 1
57 26 2
57 27 2
57 28 2
57 29 1
57 30 1
57 31 1
57 32 2
57 33 1
57 34 2
57 35 2
57 36 2
57 37 2
57 38 2
57 39 1
57 40 1
57 41 2
57 42 1
57 43 1
57 44 2
57 45 1
57 46 1
57 47 2
57 48 2
57 49 2
57 50 1
57 51 1
57 52 1
57 53 1
57 54 1
57 55 1
57 56 2
58 0 1
58 1 2
58 2 2
58 3 2
58 4 2
58 5 2
58 6 1
58 7 1
58 8 1
58 9 2
58 10 2
58 11 2
58 12 2
58 13 1
58 14 2
58 15 1
58 16 2
58 17 1
58 18 1
58 19 1
58 20 1
58 21 1
58 22 2
58 23 2
58 24 2
58 25 1
58 26 2
58 27 1
58 28 1
58 29 1
58 30 1
58 31 1
58 32 1
58 33 1
58 34 2
58 35 1
58 36 2
58 37 1
58 38 1
58 39 1
58 40 1
58 41 1
58 42 1
58 43 1
58 44 1
58 45 2
58 46 1
58 47 1
58 48 2
58 49 2
58 50 1
58 51 1
58 52 1
58 53 2
58 54 2
58 55 2
58 56 2
58 57 2
59 0 2
59 1 2
59 2 2
59 3 1
59 4 2
59 5 1
59 6 1
59 7 1
59 8 1
59 9 1
59 10 1
59 11 1
59 12 2
59 13 2
59 14 2
59 15 1
59 16 1
59 17 2
59 18 2
59 19 1
59 20 1
59 21 2
59 22 2
59 23 1
59 24 2
59 25 1
59 26 1
59 27 1
59 28 2
59 29 2
59 30 1
59 31 1
59 32 2
59 33 1
59 34 2
59 35 1
59 36 1
59 37 2
59 38 1
59 39 2
59 40 2
59 41 1
59 42 2
59 43 1
59 44 2
59 45 1
59 46 1
59 47 1
59 48 1
59 49 2
59 50 1
59 51 2
59 52 2
59 53 1
59 54 1
59 55 2
59 56 2
59 57 1
59 58 1
60 0 1
60 1 2
60 2 2
60 3 1
60 4 1
60 5 1
60 6 2
60 7 1
60 8 1
60 9 2
60 10 1
60 11 2
60 12 2
60 13 2
60 14 2
60 15 1
60 16 2
60 17 1
60 18 1
60 19 1
60 20 2
60 21 2
60 22 1
60 23 1
60 24 2
60 25 1
60 26 2
60 27 1
60 28 1
60 29 2
60 30 2
60 31 1
60 32 1
60 33 1
60 34 2
60 35 2
60 36 1
60 37 1
60 38 1
60 39 2
60 40 1
60 41 1
60 42 2
60 43 1
60 44 1
60 45 2
60 46 2
60 47 1
60 48 1
60 49 2
60 50 2
60 51 1
60 52 1
60 53 2
60 54 2
60 55 2
60 56 2
60 57 2
60 58 1
60 59 2
61 0 1
61 1 1
61 2 1
61 3 2
61 4 1
61 5 1
61 6 2
61 7 2
61 8 1
61 9 1
61 10 1
61 11 2
61 12 2
61 13 2
61 14 2
61 15 1
61 16 1
61 17 2
61 18 2
61 19 1
61 20 2
61 21 1
61 22 1
61 23 1
61 24 1
61 25 1
61 26 2
61 27 2
61 28 2
61 29 2
61 30 2
61 31 1
61 32 2
61 33 1
61 34 1
61 35 2
61 36 2
61 37 1
61 38 1
61 39 2
61 40 2
61 41 2
61 42 2
61 43 1
61 44 2
61 45 2
61 46 2
61 47 1
61 48 1
61 49 2
61 50 2
61 51 2
61 52 2
61 53 1
61 54 2
61 55 1
61 56 1
61 57 1
61 58 2
61 59 1
61 60 2
62 0 1
62 1 1
62 2 2
62 3 2
62 4 2
62 5 2
62 6 2
62 7 2
62 8 2
62 9 1
62 10 1
62 11 2
62 12 1
62 13 2
62 14 2
62 15 2
62 16 1
62 17 1
62 18 1
62 19 2
62 20 2
62 21 2
62 22 1
62 23 2
62 24 2
62 25 2
62 26 2
62 27 1
62 28 2
62 29 1
62 30 1
62 31 2
62 32 2
62 33 2
62 34 2
62 35 1
62 36 1
62 37 2
62 38 2
62 39 1
62 40 2
62 41 2
62 42 2
62 43 1
62 44 1
62 45 2
62 46 2
62 47 1
62 48 1
62 49 2
62 50 1
62 51 1
62 52 2
62 53 2
62 54 1
62 55 1
62 56 1
62 57 2
62 58 2
62 59 1
62 60 2
62 61 2
63 0 2
63 1 1
63 2 1
63 3 1
63 4 2
63 5 2
63 6 1
63 7 1
63 8 2
63 9 1
63 10 2
63 11 1
63 12 1
63 13 1
63 14 1
63 15 2
63 16 1
63 17 2
63 18 1
63 19 1
63 20 1
63 21 2
63 22 2
63 23 1
63 24 1
63 25 1
63 26 2
63 27 1
63 28 2
63 29 2
63 30 1
63 31 1
63 32 1
63 33 1
63 34 2
63 35 1
63 36 1
63 37 1
63 38 1
63 39 1
63 40 1
63 41 2
63 42 1
63 43 1
63 44 2
63 45 2
63 46 2
63 47 2
63 48 1
63 49 2
63 50 1
63 51 2
63 52 1
63 53 2
63 54 2
63 55 2
63 56 2
63 57 1
63 58 2
63 59 1
63 60 1
63 61 1
63 62 1
64 0 2
64 1 2
64 2 2
64 3 2
64 4 1
64 5 2
64 6 2
64 7 1
64 8 1
64 9 1
64 10 2
64 11 2
64 12 2
64 13 2
64 14 2
64 15 2
64 16 1
64 17 2
64 18 1
64 19 1
64 20 1
64 21 1
64 22 1
64 23 1
64 24 1
64 25 2
64 26 2
64 27 1
64 28 1
64 29 2
64 30 2
64 31 1
64 32 1
64 33 2
64 34 1
64 35 1
64 36 1
64 37 1
64 38 2
64 39 2
64 40 2
64 41 2
64 42 1
64 43 1
64 44 1
64 45 1
64 46 1
64 47 1
64 48 2
64 49 2
64 50 2
64 51 2
64 52 2
64 53 2
64 54 1
64 55 2
64 56 1
64 57 1
64 58 1
64 59 2
64 60 1
64 61 1
64 62 2
64 63 1
65 0 2
65 1 1
65 2 2
65 3 1
65 4 2
65 5 2
65 6 2
65 7 2
65 8 1
65 9 2
65 10 1
65 11 1
65 12 2
65 13 1
65 14 2
65 15 2
65 16 2
65 17 1
65 18 2
65 19 1
65 20 2
65 21 1
65 22 2
65 23 2
65 24 1
65 25 2
65 26 1
65 27 2
65 28 2
65 29 1
65 30 1
65 31 1
65 32 1
65 33 2
65 34 1
65 35 1
65 36 2
65 37 1
65 38 1
65 39 2
65 40 1
65 41 1
65 42 2
65 43 2
65 44 2
65 45 1
65 46 1
65 47 1
65 48 2
65 49 1
65 50 2
65 51 1
65 52 1
65 53 2
65 54 2
65 55 1
65 56 2
65 57 1
65 58 2
65 59 1
65 60 1
65 61 1
65 62 2
65 63 1
65 64 1
66 0 1
66 1 1
66 2 1
66 3 1
66 4 1
66 5 1
66 6 1
66 7 2
66 8 2
66 9 1
66 10 1
66 11 1
66 12 1
66 13 1
66 14 1
66 15 1
66 16 1
66 17 1
66 18 1
66 19 1
66 20 2
66 21 2
66 22 2
66 23 1
66 24 1
66 25 1
66 26 1
66 27 1
66 28 1
66 29 1
66 30 2
66 31 2
66 32 2
66 33 1
66 34 2
66 35 2
66 36 2
66 37 2
66 38 1
66 39 1
66 40 2
66 41 1
66 42 1
66 43 2
66 44 1
66 45 1
66 46 2
66 47 2
66 48 1
66 49 2
66 50 1
66 51 1
66 52 1
66 53 1
66 54 2
66 55 2
66 56 2
66 57 2
66 58 2
66 59 1
66 60 1
66 61 1
66 62 1
66 63 1
66 64 1
66 65 2
67 0 1
67 1 2
67 2 1
67 3 1
67 4 2
67 5 2
67 6 1
67 7 1
67 8 1
67 9 2
67 10 1
67 11 2
67 12 1
67 13 1
67 14 2
67 15 2
67 16 2
67 17 1
67 18 1
67 19 2
67 20 2
67 21 2
67 22 2
67 23 1
67 24 1
67 25 2
67 26 2
67 27 1
67 28 2
67 29 2
67 30 2
67 31 2
67 32 1
67 33 2
67 34 2
67 35 2
67 36 1
67 37 2
67 38 2
67 39 1
67 40 2
67 41 2
67 42 1
67 43 2
67 44 1
67 45 2
67 46 2
67 47 2
67 48 2
67 49 1
67 50 2
67 51 2
67 52 1
67 53 1
67 54 2
67 55 1
67 56 2
67 57 1
67 58 1
67 59 1
67 60 2
67 61 2
67 62 1
67 63 1
67 64 1
67 65 2
67 66 1
68 0 1
68 1 2
68 2 1
68 3 1
68 4 2
68 5 2
68 6 2
68 7 2
68 8 2
68 9 1
68 10 2
68 11 1
68 12 1
68 13 1
68 14 1
68 15 1
68 16 1
68 17 1
68 18 1
68 19 2
68 20 1
68 21 1
68 22 1
68 23 2
68 24 2
68 25 1
68 26 1
68 27 1
68 28 2
68 29 2
68 30 2
68 31 1
68 32 2
68 33 1
68 34 1
68 35 1
68 36 1
68 37 2
68 38 2
68 39 1
68 40 1
68 41 1
68 42 2
68 43 2
68 44 2
68 45 2
68 46 2
68 47 1
68 48 2
68 49 2
68 50 1
68 51 2
68 52 1
68 53 1
68 54 1
68 55 1
68 56 2
68 57 2
68 58 1
68 59 1
68 60 1
68 61 1
68 62 2
68 63 2
68 64 1
68 65 1
68 66 2
68 67 1
69 0 1
69 1 1
69 2 1
69 3 1
69 4 1
69 5 2
69 6 2
69 7 1
69 8 2
69 9 2
69 10 1
69 11 1
69 12 1
69 13 1
69 14 2
69 15 2
69 16 1
69 17 1
69 18 2
69 19 2
69 20 2
69 21 2
69 22 1
69 23 2
69 24 1
69 25 2
69 26 1
69 27 1
69 28 2
69 29 1
69 30 1
69 31 1
69 32 1
69 33 2
69 34 1
69 35 2
69 36 1
69 37 2
69 38 2
69 39 2
69 40 1
69 41 1
69 42 1
69 43 2
69 44 1
69 45 1
69 46 1
69 47 1
69 48 2
69 49 1
69 50 1
69 51 2
69 52 2
69 53 1
69 54 2
69 55 2
69 56 2
69 57 2
69 58 2
69 59 1
69 60 1
69 61 1
69 62 2
69 63 1
69 64 2
69 65 1
69 66 1
69 67 2
69 68 2
